# Tell Atomify where initial camera position should be
#/camera position 150 150 150
#/camera viewcenter 18 18 18
# Information about atoms for coloring and bonds
#/atom 1 silicon
#/atom 2 oxygen
#/bond 1 2 2.6
package omp 8
suffix omp

units metal
boundary p p p 
atom_style atomic

read_data 01_amorphous.data

pair_style vashishta
pair_coeff * * SiO2.vashishta Si O

mass 1 28.08
mass 2 15.9994
restart 2000 refile.restart

thermo 25
neigh_modify delay 0 every 1 check yes

variable boxlenght equal 100
variable boxheight equal 50
variable boxdepth equal 50
variable shrinkx equal ${boxlenght}+1
variable shrinky equal ${boxheight}+1
variable shrinkz equal ${boxdepth}+1
variable splitdepth equal 10
variable ymid equal ${boxheight}/2
variable zmid equal ${boxdepth}/2

region outbox block 0 ${boxlenght} 0 ${boxheight} 0 ${boxdepth} side out
delete_atoms region outbox
change_box all x final 0 ${shrinkx} y final 0 ${shrinky} z final 0 ${shrinkz}
#elstart
variable elx equal 10
variable ely equal 5 
variable elz equal 10
region el1 ellipsoid  20 ${ymid} ${zmid} ${elx} ${ely} ${elz}
region el2 ellipsoid  40 ${ymid} ${zmid} ${elx} ${ely} ${elz}
region el3 ellipsoid  60 ${ymid} ${zmid} ${elx} ${ely} ${elz}
region el4 ellipsoid  80 ${ymid} ${zmid} ${elx} ${ely} ${elz}
delete_atoms region el1
delete_atoms region el2
delete_atoms region el3
delete_atoms region el4
#elend
region plane1 plane ${splitdepth} ${ymid} ${zmid} -0.17 0.98 0
region plane2 plane ${splitdepth} ${ymid} ${zmid} -0.17 -0.98 0
region split intersect 2 plane1 plane2


delete_atoms region split

thermo_style custom pxx pyy pzz time 

velocity all create 300.0 277387 mom yes
timestep 0.002
#fix nvt all nvt temp 300 300 1.0 
#run 1000
fix npt all npt temp 300 300 1.0 iso 9000.0 9000.0 2.0
run 2000