#/atom 1 silicon
#/atom 2 oxygen
#/bond 1 2 2.6

read_restart refile.restart.2000
pair_style vashishta
pair_coeff * * SiO2.vashishta Si O

thermo 1

mass 1 28.08
mass 2 15.9994

neigh_modify delay 0 every 1 check yes


variable boxheight equal 50
variable rigidheight equal 5
variable toplid equal (${boxheight}-${rigidheight})

region hardbot plane 0 ${rigidheight} 0 0 -1 0 
region hardtop plane 0 ${toplid} 0 0 1 0

group hardtop region hardtop
group hardbot region hardbot
group sides union hardtop hardbot
group midten subtract all sides

thermo_style custom step pxx pyy pzz time lx ly lz 
change_box all x scale 1.05
#ikke nvt på hver side men bruk fix move til å strekke dem istedet
change_box all boundary m p p 
#velocity all create 300.0 277387 mom yes
change_box all y scale 2
compute comtop hardtop com
compute combot hardbot com
variable dist equal "c_comtop[2]-c_combot[2]"

timestep 0.002
fix nvt midten nvt temp 300 300 1.0 
fix walls all wall/reflect xlo -10.0 xhi 110 
#fix npt all npt temp 300 300 1.0 z 7500.0 7500.0 1.0 x 7500 7500 1.0
run 100
fix stretchup hardtop move linear NULL 1 NULL
fix stretchdown hardbot move linear NULL -1 NULL
run 6000
unfix stretchup
unfix stretchdown
run 1000
